639560.0
685
1 3 4 6 11 21 25 26 31 35 36 39 40 41 42 45 46 47 52 55 56 59 61 63 64 74 76 82 84 88 90 91 94 95 98 100 101 102 103 104 106 107 108 112 114 116 122 124 127 130 132 136 138 140 142 148 151 159 172 174 179 182 187 188 192 194 197 